1, 26, 37, 47, 46, 45, 44, 25, 23, 30, 1
1, 15, 16, 17, 20, 36, 31, 32, 24, 29, 28, 27, 21, 22, 53, 52, 1
1, 14, 18, 2, 3, 4, 7, 6, 5, 9, 12, 11, 10, 13, 8, 19, 1
1, 34, 35, 39, 42, 43, 51, 50, 48, 49, 41, 40, 38, 33, 1
